r = [
0,83,275,351,186,213,124,118,347,149,382,153,163,321,128,39,307,37,104,334,27,191,90,114,264,141,0
];
p = [
0,3,8,25,23,27,20,5,24,7,29,13,12,6,3,11,11,29,28,23,26,7,16,25,26,20,0
];
e = [
0,11,20,18,16,13,5,10,20,7,19,3,14,8,1,14,19,16,11,7,6,13,2,17,10,19,0
];
d = [
0,111,302,380,211,275,181,171,377,204,430,197,216,381,184,89,358,81,149,379,53,213,124,173,303,200,433
];
d_bar = [
0,112,303,383,213,278,183,172,379,205,433,198,217,382,185,90,359,84,152,381,56,214,126,176,306,202,433
];
w = [
0,11,20,6,8,4.333333333,2.5,10,10,7,6.333333333,3,14,8,1,14,19,5.333333333,3.666666667,3.5,2,13,1,5.666666667,3.333333333,9.5,0
];
